(set-info :smt-lib-version 2.6)
(set-logic QF_NIA)
(set-info :source |
Generated by: Cristina Borralleras, Daniel Larraz, Albert Oliveras, Enric Rodriguez-Carbonell, Albert Rubio
Generated on: 2017-04-27
Generator: VeryMax
Application: Termination proving
Target solver: barcelogic
|)
(set-info :license "https://creativecommons.org/licenses/by/4.0/")
(set-info :category "industrial")
(set-info :status sat)
(declare-fun Nl47main_x1 () Int)
(declare-fun Nl47main_y1 () Int)
(declare-fun Nl47main_z1 () Int)
(declare-fun Nl47main_x2 () Int)
(declare-fun Nl47main_y2 () Int)
(declare-fun Nl47main_z2 () Int)
(declare-fun Nl47main_x3 () Int)
(declare-fun Nl47main_y3 () Int)
(declare-fun Nl47main_z3 () Int)
(declare-fun lam0n0 () Int)
(declare-fun lam0n1 () Int)
(declare-fun lam0n2 () Int)
(declare-fun lam0n3 () Int)
(declare-fun lam0n4 () Int)
(declare-fun Nl47CT1 () Int)
(declare-fun Nl47CT2 () Int)
(declare-fun Nl47CT3 () Int)
(declare-fun lam1n0 () Int)
(declare-fun lam1n1 () Int)
(declare-fun lam1n2 () Int)
(declare-fun lam1n3 () Int)
(declare-fun lam1n4 () Int)
(declare-fun lam2n0 () Int)
(declare-fun lam2n1 () Int)
(declare-fun lam2n2 () Int)
(declare-fun lam2n3 () Int)
(declare-fun lam2n4 () Int)
(declare-fun lam3n0 () Int)
(declare-fun lam3n1 () Int)
(declare-fun lam3n2 () Int)
(declare-fun lam3n3 () Int)
(declare-fun lam3n4 () Int)
(declare-fun lam4n0 () Int)
(declare-fun lam4n1 () Int)
(declare-fun lam4n2 () Int)
(declare-fun lam5n0 () Int)
(declare-fun lam5n1 () Int)
(declare-fun lam5n2 () Int)
(declare-fun lam6n0 () Int)
(declare-fun lam6n1 () Int)
(declare-fun lam6n2 () Int)
(declare-fun lam7n2 () Int)
(declare-fun lam7n0 () Int)
(declare-fun lam7n1 () Int)
(declare-fun lam8n2 () Int)
(declare-fun lam8n0 () Int)
(declare-fun lam8n1 () Int)
(declare-fun lam9n2 () Int)
(declare-fun lam9n0 () Int)
(declare-fun lam9n1 () Int)
(declare-fun main_y () Int)
(declare-fun undef4 () Int)
(declare-fun main_z () Int)
(declare-fun undef5 () Int)
(declare-fun undef6 () Int)
(declare-fun lam13n0 () Int)
(declare-fun lam13n1 () Int)
(declare-fun lam13n2 () Int)
(declare-fun lam13n3 () Int)
(declare-fun lam13n4 () Int)
(declare-fun RFN1_CT () Int)
(declare-fun RFN1_main_y () Int)
(declare-fun RFN1_main_z () Int)
(declare-fun RFN1_main_x () Int)
(declare-fun lam11n0 () Int)
(declare-fun lam11n1 () Int)
(declare-fun lam11n2 () Int)
(declare-fun lam11n3 () Int)
(declare-fun lam11n4 () Int)
(declare-fun lam12n0 () Int)
(declare-fun lam12n1 () Int)
(declare-fun lam12n2 () Int)
(declare-fun lam12n3 () Int)
(declare-fun lam12n4 () Int)
(declare-fun lam10n0 () Int)
(declare-fun lam10n1 () Int)
(declare-fun lam10n2 () Int)
(declare-fun lam10n3 () Int)
(declare-fun lam10n4 () Int)
(assert ( and ( <= ( - 1 ) Nl47main_x1 ) ( <= Nl47main_x1 1 ) ( <= ( - 1 ) Nl47main_y1 ) ( <= Nl47main_y1 1 ) ( <= ( - 1 ) Nl47main_z1 ) ( <= Nl47main_z1 1 ) ( <= ( - 1 ) Nl47main_x2 ) ( <= Nl47main_x2 1 ) ( <= ( - 1 ) Nl47main_y2 ) ( <= Nl47main_y2 1 ) ( <= ( - 1 ) Nl47main_z2 ) ( <= Nl47main_z2 1 ) ( <= ( - 1 ) Nl47main_x3 ) ( <= Nl47main_x3 1 ) ( <= ( - 1 ) Nl47main_y3 ) ( <= Nl47main_y3 1 ) ( <= ( - 1 ) Nl47main_z3 ) ( <= Nl47main_z3 1 ) ))
(assert ( or ( and ( >= lam0n0 0 ) ( >= lam0n1 0 ) ( >= lam0n2 0 ) ( >= lam0n3 0 ) ( >= lam0n4 0 ) ( > ( + ( * ( - 99 ) lam0n0 ) ( * ( - 99 ) lam0n1 ) ( * Nl47CT1 lam0n2 ) ( * Nl47CT2 lam0n3 ) ( * Nl47CT3 lam0n4 ) ( - 1 ) ) 0 ) ( = ( + ( * Nl47main_x1 lam0n2 ) ( * Nl47main_x2 lam0n3 ) ( * Nl47main_x3 lam0n4 ) ) 0 ) ( = ( + ( * 1 lam0n0 ) ( * Nl47main_y1 lam0n2 ) ( * Nl47main_y2 lam0n3 ) ( * Nl47main_y3 lam0n4 ) ) 0 ) ( = ( + ( * 1 lam0n1 ) ( * Nl47main_z1 lam0n2 ) ( * Nl47main_z2 lam0n3 ) ( * Nl47main_z3 lam0n4 ) ) 0 ) ) ( and ( >= lam1n0 0 ) ( >= lam1n1 0 ) ( >= lam1n2 0 ) ( >= lam1n3 0 ) ( >= lam1n4 0 ) ( > ( + ( * ( - 99 ) lam1n0 ) ( * ( - 99 ) lam1n1 ) ( * Nl47CT1 lam1n2 ) ( * Nl47CT2 lam1n3 ) ( * Nl47CT3 lam1n4 ) ( - 1 ( + ( + Nl47CT1 ( * Nl47main_y1 0 ) ) ( * Nl47main_z1 0 ) ) ) ) 0 ) ( = ( + ( * Nl47main_x1 lam1n2 ) ( * Nl47main_x2 lam1n3 ) ( * Nl47main_x3 lam1n4 ) ( - ( + ( + ( + 0 Nl47main_x1 ) ( * Nl47main_y1 1 ) ) ( * Nl47main_z1 ( - 1 ) ) ) ) ) 0 ) ( = ( + ( * 1 lam1n0 ) ( * Nl47main_y1 lam1n2 ) ( * Nl47main_y2 lam1n3 ) ( * Nl47main_y3 lam1n4 ) ( - ( + 0 ( * Nl47main_y1 1 ) ) ) ) 0 ) ( = ( + ( * 1 lam1n1 ) ( * Nl47main_z1 lam1n2 ) ( * Nl47main_z2 lam1n3 ) ( * Nl47main_z3 lam1n4 ) ( - ( + 0 ( * Nl47main_z1 1 ) ) ) ) 0 ) ) ))
(assert ( or ( and ( >= lam0n0 0 ) ( >= lam0n1 0 ) ( >= lam0n2 0 ) ( >= lam0n3 0 ) ( >= lam0n4 0 ) ( > ( + ( * ( - 99 ) lam0n0 ) ( * ( - 99 ) lam0n1 ) ( * Nl47CT1 lam0n2 ) ( * Nl47CT2 lam0n3 ) ( * Nl47CT3 lam0n4 ) ( - 1 ) ) 0 ) ( = ( + ( * Nl47main_x1 lam0n2 ) ( * Nl47main_x2 lam0n3 ) ( * Nl47main_x3 lam0n4 ) ) 0 ) ( = ( + ( * 1 lam0n0 ) ( * Nl47main_y1 lam0n2 ) ( * Nl47main_y2 lam0n3 ) ( * Nl47main_y3 lam0n4 ) ) 0 ) ( = ( + ( * 1 lam0n1 ) ( * Nl47main_z1 lam0n2 ) ( * Nl47main_z2 lam0n3 ) ( * Nl47main_z3 lam0n4 ) ) 0 ) ) ( and ( >= lam2n0 0 ) ( >= lam2n1 0 ) ( >= lam2n2 0 ) ( >= lam2n3 0 ) ( >= lam2n4 0 ) ( > ( + ( * ( - 99 ) lam2n0 ) ( * ( - 99 ) lam2n1 ) ( * Nl47CT1 lam2n2 ) ( * Nl47CT2 lam2n3 ) ( * Nl47CT3 lam2n4 ) ( - 1 ( + ( + Nl47CT2 ( * Nl47main_y2 0 ) ) ( * Nl47main_z2 0 ) ) ) ) 0 ) ( = ( + ( * Nl47main_x1 lam2n2 ) ( * Nl47main_x2 lam2n3 ) ( * Nl47main_x3 lam2n4 ) ( - ( + ( + ( + 0 Nl47main_x2 ) ( * Nl47main_y2 1 ) ) ( * Nl47main_z2 ( - 1 ) ) ) ) ) 0 ) ( = ( + ( * 1 lam2n0 ) ( * Nl47main_y1 lam2n2 ) ( * Nl47main_y2 lam2n3 ) ( * Nl47main_y3 lam2n4 ) ( - ( + 0 ( * Nl47main_y2 1 ) ) ) ) 0 ) ( = ( + ( * 1 lam2n1 ) ( * Nl47main_z1 lam2n2 ) ( * Nl47main_z2 lam2n3 ) ( * Nl47main_z3 lam2n4 ) ( - ( + 0 ( * Nl47main_z2 1 ) ) ) ) 0 ) ) ))
(assert ( or ( and ( >= lam0n0 0 ) ( >= lam0n1 0 ) ( >= lam0n2 0 ) ( >= lam0n3 0 ) ( >= lam0n4 0 ) ( > ( + ( * ( - 99 ) lam0n0 ) ( * ( - 99 ) lam0n1 ) ( * Nl47CT1 lam0n2 ) ( * Nl47CT2 lam0n3 ) ( * Nl47CT3 lam0n4 ) ( - 1 ) ) 0 ) ( = ( + ( * Nl47main_x1 lam0n2 ) ( * Nl47main_x2 lam0n3 ) ( * Nl47main_x3 lam0n4 ) ) 0 ) ( = ( + ( * 1 lam0n0 ) ( * Nl47main_y1 lam0n2 ) ( * Nl47main_y2 lam0n3 ) ( * Nl47main_y3 lam0n4 ) ) 0 ) ( = ( + ( * 1 lam0n1 ) ( * Nl47main_z1 lam0n2 ) ( * Nl47main_z2 lam0n3 ) ( * Nl47main_z3 lam0n4 ) ) 0 ) ) ( and ( >= lam3n0 0 ) ( >= lam3n1 0 ) ( >= lam3n2 0 ) ( >= lam3n3 0 ) ( >= lam3n4 0 ) ( > ( + ( * ( - 99 ) lam3n0 ) ( * ( - 99 ) lam3n1 ) ( * Nl47CT1 lam3n2 ) ( * Nl47CT2 lam3n3 ) ( * Nl47CT3 lam3n4 ) ( - 1 ( + ( + Nl47CT3 ( * Nl47main_y3 0 ) ) ( * Nl47main_z3 0 ) ) ) ) 0 ) ( = ( + ( * Nl47main_x1 lam3n2 ) ( * Nl47main_x2 lam3n3 ) ( * Nl47main_x3 lam3n4 ) ( - ( + ( + ( + 0 Nl47main_x3 ) ( * Nl47main_y3 1 ) ) ( * Nl47main_z3 ( - 1 ) ) ) ) ) 0 ) ( = ( + ( * 1 lam3n0 ) ( * Nl47main_y1 lam3n2 ) ( * Nl47main_y2 lam3n3 ) ( * Nl47main_y3 lam3n4 ) ( - ( + 0 ( * Nl47main_y3 1 ) ) ) ) 0 ) ( = ( + ( * 1 lam3n1 ) ( * Nl47main_z1 lam3n2 ) ( * Nl47main_z2 lam3n3 ) ( * Nl47main_z3 lam3n4 ) ( - ( + 0 ( * Nl47main_z3 1 ) ) ) ) 0 ) ) ))
(assert ( or ( and ( = ( + main_y ( * ( - 1 ) undef4 ) ) 0 ) ( = ( + main_z ( * ( - 1 ) undef5 ) ) 0 ) ( = undef6 0 ) ( <= ( + ( + Nl47CT1 ( * Nl47main_x1 ( - 9 ) ) ) ( * ( + 0 Nl47main_y1 ) main_y ) ( * ( + 0 Nl47main_z1 ) main_z ) ) 0 ) ( <= ( + ( + Nl47CT2 ( * Nl47main_x2 ( - 9 ) ) ) ( * ( + 0 Nl47main_y2 ) main_y ) ( * ( + 0 Nl47main_z2 ) main_z ) ) 0 ) ( <= ( + ( + Nl47CT3 ( * Nl47main_x3 ( - 9 ) ) ) ( * ( + 0 Nl47main_y3 ) main_y ) ( * ( + 0 Nl47main_z3 ) main_z ) ) 0 ) ) ( and ( = ( + main_y ( * ( - 1 ) undef4 ) ) 0 ) ( = ( + main_z ( * ( - 1 ) undef5 ) ) 0 ) ( = ( + ( - 1 ) undef6 ) 0 ) ( <= ( + ( + Nl47CT1 ( * Nl47main_x1 9 ) ) ( * ( + 0 Nl47main_y1 ) main_y ) ( * ( + 0 Nl47main_z1 ) main_z ) ) 0 ) ( <= ( + ( + Nl47CT2 ( * Nl47main_x2 9 ) ) ( * ( + 0 Nl47main_y2 ) main_y ) ( * ( + 0 Nl47main_z2 ) main_z ) ) 0 ) ( <= ( + ( + Nl47CT3 ( * Nl47main_x3 9 ) ) ( * ( + 0 Nl47main_y3 ) main_y ) ( * ( + 0 Nl47main_z3 ) main_z ) ) 0 ) ) ))
(assert ( or ( and ( and ( >= lam13n0 0 ) ( >= lam13n1 0 ) ( >= lam13n2 0 ) ( >= lam13n3 0 ) ( >= lam13n4 0 ) ( > ( + ( * ( - 99 ) lam13n0 ) ( * ( - 99 ) lam13n1 ) ( * Nl47CT1 lam13n2 ) ( * Nl47CT2 lam13n3 ) ( * Nl47CT3 lam13n4 ) ( - 1 ( - ( + ( + RFN1_CT ( * RFN1_main_y 0 ) ) ( * RFN1_main_z 0 ) ) RFN1_CT ) ) ) 0 ) ( = ( + ( * Nl47main_x1 lam13n2 ) ( * Nl47main_x2 lam13n3 ) ( * Nl47main_x3 lam13n4 ) ( - ( - ( + ( + ( + 0 RFN1_main_x ) ( * RFN1_main_y 1 ) ) ( * RFN1_main_z ( - 1 ) ) ) RFN1_main_x ) ) ) 0 ) ( = ( + ( * 1 lam13n0 ) ( * Nl47main_y1 lam13n2 ) ( * Nl47main_y2 lam13n3 ) ( * Nl47main_y3 lam13n4 ) ( - ( - ( + 0 ( * RFN1_main_y 1 ) ) RFN1_main_y ) ) ) 0 ) ( = ( + ( * 1 lam13n1 ) ( * Nl47main_z1 lam13n2 ) ( * Nl47main_z2 lam13n3 ) ( * Nl47main_z3 lam13n4 ) ( - ( - ( + 0 ( * RFN1_main_z 1 ) ) RFN1_main_z ) ) ) 0 ) ) ( and ( and ( >= lam11n0 0 ) ( >= lam11n1 0 ) ( >= lam11n2 0 ) ( >= lam11n3 0 ) ( >= lam11n4 0 ) ( > ( + ( * ( - 99 ) lam11n0 ) ( * ( - 99 ) lam11n1 ) ( * Nl47CT1 lam11n2 ) ( * Nl47CT2 lam11n3 ) ( * Nl47CT3 lam11n4 ) ( - 1 ( - RFN1_CT ) ) ) 0 ) ( = ( + ( * Nl47main_x1 lam11n2 ) ( * Nl47main_x2 lam11n3 ) ( * Nl47main_x3 lam11n4 ) ( - ( - RFN1_main_x ) ) ) 0 ) ( = ( + ( * 1 lam11n0 ) ( * Nl47main_y1 lam11n2 ) ( * Nl47main_y2 lam11n3 ) ( * Nl47main_y3 lam11n4 ) ( - ( - RFN1_main_y ) ) ) 0 ) ( = ( + ( * 1 lam11n1 ) ( * Nl47main_z1 lam11n2 ) ( * Nl47main_z2 lam11n3 ) ( * Nl47main_z3 lam11n4 ) ( - ( - RFN1_main_z ) ) ) 0 ) ) ( and ( >= lam12n0 0 ) ( >= lam12n1 0 ) ( >= lam12n2 0 ) ( >= lam12n3 0 ) ( >= lam12n4 0 ) ( > ( + ( * ( - 99 ) lam12n0 ) ( * ( - 99 ) lam12n1 ) ( * Nl47CT1 lam12n2 ) ( * Nl47CT2 lam12n3 ) ( * Nl47CT3 lam12n4 ) ( - 1 ( + ( - ( + ( + RFN1_CT ( * RFN1_main_y 0 ) ) ( * RFN1_main_z 0 ) ) RFN1_CT ) 1 ) ) ) 0 ) ( = ( + ( * Nl47main_x1 lam12n2 ) ( * Nl47main_x2 lam12n3 ) ( * Nl47main_x3 lam12n4 ) ( - ( - ( + ( + ( + 0 RFN1_main_x ) ( * RFN1_main_y 1 ) ) ( * RFN1_main_z ( - 1 ) ) ) RFN1_main_x ) ) ) 0 ) ( = ( + ( * 1 lam12n0 ) ( * Nl47main_y1 lam12n2 ) ( * Nl47main_y2 lam12n3 ) ( * Nl47main_y3 lam12n4 ) ( - ( - ( + 0 ( * RFN1_main_y 1 ) ) RFN1_main_y ) ) ) 0 ) ( = ( + ( * 1 lam12n1 ) ( * Nl47main_z1 lam12n2 ) ( * Nl47main_z2 lam12n3 ) ( * Nl47main_z3 lam12n4 ) ( - ( - ( + 0 ( * RFN1_main_z 1 ) ) RFN1_main_z ) ) ) 0 ) ) ) ) ( and ( >= lam10n0 0 ) ( >= lam10n1 0 ) ( >= lam10n2 0 ) ( >= lam10n3 0 ) ( >= lam10n4 0 ) ( > ( + ( * ( - 99 ) lam10n0 ) ( * ( - 99 ) lam10n1 ) ( * Nl47CT1 lam10n2 ) ( * Nl47CT2 lam10n3 ) ( * Nl47CT3 lam10n4 ) ( - 1 ) ) 0 ) ( = ( + ( * Nl47main_x1 lam10n2 ) ( * Nl47main_x2 lam10n3 ) ( * Nl47main_x3 lam10n4 ) ) 0 ) ( = ( + ( * 1 lam10n0 ) ( * Nl47main_y1 lam10n2 ) ( * Nl47main_y2 lam10n3 ) ( * Nl47main_y3 lam10n4 ) ) 0 ) ( = ( + ( * 1 lam10n1 ) ( * Nl47main_z1 lam10n2 ) ( * Nl47main_z2 lam10n3 ) ( * Nl47main_z3 lam10n4 ) ) 0 ) ) ))
(check-sat)
(exit)
